(define-funs-rec
  ((u3
    ((x Int) (y Int) (z Int)) Int)
   (v3
    ((x Int) (y Int) (z Int)) Int))
  ((ite (<= x 0) y (+ (u3 (- x 1) y z) (v3 (- x 1) y z)))
   (ite (<= x 0) z (u3 (- x 1) y z))))
(define-funs-rec
  ((u1
    ((x Int) (y Int) (z Int)) Int)
   (v1
    ((x Int) (y Int) (z Int)) Int))
  ((ite (<= x 0) y (+ (u1 (- x 1) y z) (v1 (- x 1) y z)))
   (ite (<= x 0) z (u1 (- x 1) y z))))
(define-fun
  w1
  ((x Int)) Int (u1 x 0 1))
(define-fun
  h3
  ((x Int)) Int (- x 2))
(define-fun
  w3
  ((x Int)) Int (u3 (h3 x) 1 1))
(define-fun
  h1
  ((x Int)) Int x)
(define-fun
  g3
  ((x Int)) Int x)
(define-fun
  g1
  ((x Int)) Int x)
(define-fun
  f2
  ((x Int)) Int (* x x))
(define-fun-rec
  u2
  ((x Int) (y Int)) Int (ite (<= x 0) y (f2 (u2 (- x 1) y))))
(define-fun
  v2
  ((x Int)) Int (u2 2 (w3 x)))
(define-fun
  fast
  ((x Int)) Int
  (* (+ (mod (- (v2 x) 1) (+ 1 (* 2 (+ 2 2)))) 1)
    (ite (<= x 0) 0 1)))
(define-fun
  f0
  ((x Int)) Int (* x x))
(define-fun-rec
  u0
  ((x Int) (y Int)) Int (ite (<= x 0) y (f0 (u0 (- x 1) y))))
(define-fun
  v0
  ((x Int)) Int (u0 2 (w1 x)))
(define-fun
  small
  ((x Int)) Int
  (* (+ (mod (- (v0 x) 1) (+ 1 (* 2 (+ 2 2)))) 1)
    (ite (<= x 0) 0 1)))
(assert-not
  (forall ((c Int)) (or (not (>= c 0)) (= (small c) (fast c)))))
